n = 2;
m = 2;
num_of_regions = 7;
regions_max_size = 3;

regions = [|
5, 2, 1,1, 1,2, 0,0, |
5, 2, 1,3, 1,4, 0,0, |
9, 3, 2,1, 3,1, 4,1, |
3, 2, 2,2, 3,2, 0,0, |
5, 2, 2,3, 2,4, 0,0, |
6, 3, 3,3, 4,2, 4,3, |
7, 2, 3,4, 4,4, 0,0, |];

matrix = [|
1, 4, 3, 2, |
3, 2, 4, 1, |
4, 1, 2, 3, |
2, 3, 1, 4, |];